<?xml version="1.0" encoding="UTF-8"?><osil xmlns="os.optimizationservices.org"   xmlns:xsi="http://www.w3.org/2001/XMLSchema-instance" xsi:schemaLocation="os.optimizationservices.org http://www.optimizationservices.org/schemas/2.0/OSiL.xsd" ><instanceHeader><name>q_40_0_25_2</name></instanceHeader><instanceData><variables numberOfVariables="40"><var name="x1" ub="1"/><var name="x2" ub="1"/><var name="x3" ub="1"/><var name="x4" ub="1"/><var name="x5" ub="1"/><var name="x6" ub="1"/><var name="x7" ub="1"/><var name="x8" ub="1"/><var name="x9" ub="1"/><var name="x10" ub="1"/><var name="x11" ub="1"/><var name="x12" ub="1"/><var name="x13" ub="1"/><var name="x14" ub="1"/><var name="x15" ub="1"/><var name="x16" ub="1"/><var name="x17" ub="1"/><var name="x18" ub="1"/><var name="x19" ub="1"/><var name="x20" ub="1"/><var name="x21" ub="1"/><var name="x22" ub="1"/><var name="x23" ub="1"/><var name="x24" ub="1"/><var name="x25" ub="1"/><var name="x26" ub="1"/><var name="x27" ub="1"/><var name="x28" ub="1"/><var name="x29" ub="1"/><var name="x30" ub="1"/><var name="x31" ub="1"/><var name="x32" ub="1"/><var name="x33" ub="1"/><var name="x34" ub="1"/><var name="x35" ub="1"/><var name="x36" ub="1"/><var name="x37" ub="1"/><var name="x38" ub="1"/><var name="x39" ub="1"/><var name="x40" ub="1"/></variables><objectives numberOfObjectives="1"><obj maxOrMin="min" name="defObj_x41" numberOfObjCoef="40"><coef idx="0">-5.96e-2</coef><coef idx="1">.152</coef><coef idx="2">.5178</coef><coef idx="3">-.1747</coef><coef idx="4">.9976</coef><coef idx="5">.1196</coef><coef idx="6">-.5697</coef><coef idx="7">-.8498</coef><coef idx="8">-.6921</coef><coef idx="9">-8.32e-2</coef><coef idx="10">.7875</coef><coef idx="11">.2374</coef><coef idx="12">.2773</coef><coef idx="13">.8304</coef><coef idx="14">-.2771</coef><coef idx="15">.8288</coef><coef idx="16">-.6953</coef><coef idx="17">.9491</coef><coef idx="18">-.1701</coef><coef idx="19">.4837</coef><coef idx="20">-.9392</coef><coef idx="21">-2.95e-2</coef><coef idx="22">.8232</coef><coef idx="23">.8049</coef><coef idx="24">.8403</coef><coef idx="25">4.02e-2</coef><coef idx="26">.4708</coef><coef idx="27">.653</coef><coef idx="28">.4072</coef><coef idx="29">.3477</coef><coef idx="30">-.8469</coef><coef idx="31">-6.43e-2</coef><coef idx="32">.9855</coef><coef idx="33">.169</coef><coef idx="34">.1277</coef><coef idx="35">.1701</coef><coef idx="36">-.2288</coef><coef idx="37">.6269</coef><coef idx="38">-.165</coef><coef idx="39">-.3328</coef></obj></objectives><quadraticCoefficients  numberOfQuadraticTerms="205" ><qTerm  idx="-1"  idxOne="0"  idxTwo="9"  coef="-.3436"/><qTerm  idx="-1"  idxOne="0"  idxTwo="10"  coef=".3895"/><qTerm  idx="-1"  idxOne="0"  idxTwo="14"  coef="1.3977"/><qTerm  idx="-1"  idxOne="0"  idxTwo="19"  coef="-1.0094"/><qTerm  idx="-1"  idxOne="0"  idxTwo="23"  coef="1.301"/><qTerm  idx="-1"  idxOne="0"  idxTwo="39"  coef="1.5216"/><qTerm  idx="-1"  idxOne="1"  idxTwo="2"  coef="1.7895"/><qTerm  idx="-1"  idxOne="1"  idxTwo="8"  coef="-1.9686"/><qTerm  idx="-1"  idxOne="1"  idxTwo="10"  coef="-.9224"/><qTerm  idx="-1"  idxOne="1"  idxTwo="11"  coef="-1.2747"/><qTerm  idx="-1"  idxOne="1"  idxTwo="13"  coef="-.6608"/><qTerm  idx="-1"  idxOne="1"  idxTwo="19"  coef="-.9034"/><qTerm  idx="-1"  idxOne="1"  idxTwo="21"  coef="-.3113"/><qTerm  idx="-1"  idxOne="1"  idxTwo="26"  coef="-1.2742"/><qTerm  idx="-1"  idxOne="1"  idxTwo="28"  coef=".3394"/><qTerm  idx="-1"  idxOne="1"  idxTwo="30"  coef="1.2739"/><qTerm  idx="-1"  idxOne="1"  idxTwo="32"  coef=".9538"/><qTerm  idx="-1"  idxOne="1"  idxTwo="39"  coef="-1.9863"/><qTerm  idx="-1"  idxOne="2"  idxTwo="5"  coef=".2626"/><qTerm  idx="-1"  idxOne="2"  idxTwo="7"  coef="-1.1454"/><qTerm  idx="-1"  idxOne="2"  idxTwo="8"  coef=".9729"/><qTerm  idx="-1"  idxOne="2"  idxTwo="9"  coef=".5738"/><qTerm  idx="-1"  idxOne="2"  idxTwo="11"  coef="-.4939"/><qTerm  idx="-1"  idxOne="2"  idxTwo="14"  coef="-.2766"/><qTerm  idx="-1"  idxOne="2"  idxTwo="17"  coef="-1.9652"/><qTerm  idx="-1"  idxOne="2"  idxTwo="21"  coef="-1.4246"/><qTerm  idx="-1"  idxOne="2"  idxTwo="25"  coef=".6528"/><qTerm  idx="-1"  idxOne="2"  idxTwo="34"  coef="-.6227"/><qTerm  idx="-1"  idxOne="2"  idxTwo="35"  coef="7.9e-2"/><qTerm  idx="-1"  idxOne="3"  idxTwo="3"  coef="1.3248"/><qTerm  idx="-1"  idxOne="3"  idxTwo="9"  coef="1.6421"/><qTerm  idx="-1"  idxOne="3"  idxTwo="13"  coef="-2.95e-2"/><qTerm  idx="-1"  idxOne="3"  idxTwo="15"  coef="-1.5941"/><qTerm  idx="-1"  idxOne="3"  idxTwo="24"  coef=".1484"/><qTerm  idx="-1"  idxOne="3"  idxTwo="31"  coef="-.7052"/><qTerm  idx="-1"  idxOne="3"  idxTwo="32"  coef="1.4859"/><qTerm  idx="-1"  idxOne="3"  idxTwo="37"  coef=".8061"/><qTerm  idx="-1"  idxOne="3"  idxTwo="38"  coef="-1.3956"/><qTerm  idx="-1"  idxOne="4"  idxTwo="4"  coef=".292"/><qTerm  idx="-1"  idxOne="4"  idxTwo="6"  coef="1.381"/><qTerm  idx="-1"  idxOne="4"  idxTwo="12"  coef="1.4727"/><qTerm  idx="-1"  idxOne="4"  idxTwo="14"  coef=".6076"/><qTerm  idx="-1"  idxOne="4"  idxTwo="17"  coef="-1.0599"/><qTerm  idx="-1"  idxOne="4"  idxTwo="21"  coef="-.8284"/><qTerm  idx="-1"  idxOne="4"  idxTwo="24"  coef="-.6627"/><qTerm  idx="-1"  idxOne="4"  idxTwo="25"  coef="-1.7334"/><qTerm  idx="-1"  idxOne="4"  idxTwo="27"  coef=".105"/><qTerm  idx="-1"  idxOne="4"  idxTwo="35"  coef="1.1009"/><qTerm  idx="-1"  idxOne="4"  idxTwo="36"  coef=".8327"/><qTerm  idx="-1"  idxOne="5"  idxTwo="5"  coef="-1.1395"/><qTerm  idx="-1"  idxOne="5"  idxTwo="9"  coef="-.5351"/><qTerm  idx="-1"  idxOne="5"  idxTwo="13"  coef="-.1033"/><qTerm  idx="-1"  idxOne="5"  idxTwo="14"  coef="-1.5485"/><qTerm  idx="-1"  idxOne="5"  idxTwo="21"  coef="-1.3042"/><qTerm  idx="-1"  idxOne="5"  idxTwo="27"  coef="1.9082"/><qTerm  idx="-1"  idxOne="5"  idxTwo="28"  coef="1.4193"/><qTerm  idx="-1"  idxOne="5"  idxTwo="31"  coef="-1.1762"/><qTerm  idx="-1"  idxOne="5"  idxTwo="32"  coef="-1.493"/><qTerm  idx="-1"  idxOne="5"  idxTwo="33"  coef="1.9599"/><qTerm  idx="-1"  idxOne="5"  idxTwo="37"  coef=".84"/><qTerm  idx="-1"  idxOne="6"  idxTwo="7"  coef=".4144"/><qTerm  idx="-1"  idxOne="6"  idxTwo="8"  coef=".7643"/><qTerm  idx="-1"  idxOne="6"  idxTwo="10"  coef=".872"/><qTerm  idx="-1"  idxOne="6"  idxTwo="12"  coef=".3001"/><qTerm  idx="-1"  idxOne="6"  idxTwo="18"  coef=".1954"/><qTerm  idx="-1"  idxOne="6"  idxTwo="25"  coef="-.3833"/><qTerm  idx="-1"  idxOne="6"  idxTwo="32"  coef="-.9941"/><qTerm  idx="-1"  idxOne="6"  idxTwo="34"  coef="-.1736"/><qTerm  idx="-1"  idxOne="6"  idxTwo="38"  coef="1.727"/><qTerm  idx="-1"  idxOne="7"  idxTwo="13"  coef="-.4681"/><qTerm  idx="-1"  idxOne="7"  idxTwo="14"  coef="-.6834"/><qTerm  idx="-1"  idxOne="7"  idxTwo="17"  coef="-.253"/><qTerm  idx="-1"  idxOne="7"  idxTwo="18"  coef="-.2437"/><qTerm  idx="-1"  idxOne="7"  idxTwo="21"  coef="-.2924"/><qTerm  idx="-1"  idxOne="7"  idxTwo="23"  coef="1.8441"/><qTerm  idx="-1"  idxOne="7"  idxTwo="27"  coef=".4504"/><qTerm  idx="-1"  idxOne="7"  idxTwo="33"  coef="1.1784"/><qTerm  idx="-1"  idxOne="7"  idxTwo="34"  coef="-.7428"/><qTerm  idx="-1"  idxOne="7"  idxTwo="36"  coef="1.1905"/><qTerm  idx="-1"  idxOne="7"  idxTwo="39"  coef="-1.5013"/><qTerm  idx="-1"  idxOne="8"  idxTwo="10"  coef="-.9716"/><qTerm  idx="-1"  idxOne="8"  idxTwo="15"  coef="-1.0124"/><qTerm  idx="-1"  idxOne="8"  idxTwo="16"  coef="1.6397"/><qTerm  idx="-1"  idxOne="8"  idxTwo="19"  coef="-.5831"/><qTerm  idx="-1"  idxOne="8"  idxTwo="25"  coef="1.2129"/><qTerm  idx="-1"  idxOne="8"  idxTwo="26"  coef=".1446"/><qTerm  idx="-1"  idxOne="8"  idxTwo="33"  coef=".606"/><qTerm  idx="-1"  idxOne="8"  idxTwo="34"  coef="-1.23"/><qTerm  idx="-1"  idxOne="8"  idxTwo="35"  coef="-1.1138"/><qTerm  idx="-1"  idxOne="9"  idxTwo="18"  coef="-.8465"/><qTerm  idx="-1"  idxOne="9"  idxTwo="19"  coef="-1.0961"/><qTerm  idx="-1"  idxOne="9"  idxTwo="25"  coef="1.6077"/><qTerm  idx="-1"  idxOne="9"  idxTwo="26"  coef="-1.2543"/><qTerm  idx="-1"  idxOne="9"  idxTwo="31"  coef=".8421"/><qTerm  idx="-1"  idxOne="9"  idxTwo="38"  coef="-.3177"/><qTerm  idx="-1"  idxOne="10"  idxTwo="17"  coef="-1.3259"/><qTerm  idx="-1"  idxOne="10"  idxTwo="18"  coef="-.578"/><qTerm  idx="-1"  idxOne="10"  idxTwo="19"  coef="-1.8812"/><qTerm  idx="-1"  idxOne="10"  idxTwo="21"  coef="1.044"/><qTerm  idx="-1"  idxOne="10"  idxTwo="26"  coef="1.1239"/><qTerm  idx="-1"  idxOne="10"  idxTwo="28"  coef="1.6047"/><qTerm  idx="-1"  idxOne="10"  idxTwo="31"  coef="-1.6835"/><qTerm  idx="-1"  idxOne="11"  idxTwo="11"  coef="1.5132"/><qTerm  idx="-1"  idxOne="11"  idxTwo="19"  coef="-1.0457"/><qTerm  idx="-1"  idxOne="11"  idxTwo="26"  coef=".3559"/><qTerm  idx="-1"  idxOne="11"  idxTwo="29"  coef=".2452"/><qTerm  idx="-1"  idxOne="11"  idxTwo="35"  coef="1.7352"/><qTerm  idx="-1"  idxOne="11"  idxTwo="38"  coef="-.5358"/><qTerm  idx="-1"  idxOne="12"  idxTwo="33"  coef="-.9953"/><qTerm  idx="-1"  idxOne="12"  idxTwo="34"  coef="1.9316"/><qTerm  idx="-1"  idxOne="12"  idxTwo="35"  coef="1.1265"/><qTerm  idx="-1"  idxOne="12"  idxTwo="38"  coef="1.8207"/><qTerm  idx="-1"  idxOne="12"  idxTwo="39"  coef="-1.7823"/><qTerm  idx="-1"  idxOne="13"  idxTwo="22"  coef="1.0864"/><qTerm  idx="-1"  idxOne="13"  idxTwo="31"  coef=".3176"/><qTerm  idx="-1"  idxOne="14"  idxTwo="35"  coef="-1.1509"/><qTerm  idx="-1"  idxOne="15"  idxTwo="16"  coef="-1.996"/><qTerm  idx="-1"  idxOne="15"  idxTwo="19"  coef="-1.673"/><qTerm  idx="-1"  idxOne="15"  idxTwo="20"  coef="1.573"/><qTerm  idx="-1"  idxOne="15"  idxTwo="22"  coef="1.9972"/><qTerm  idx="-1"  idxOne="15"  idxTwo="24"  coef=".1601"/><qTerm  idx="-1"  idxOne="15"  idxTwo="25"  coef="-1.0334"/><qTerm  idx="-1"  idxOne="16"  idxTwo="23"  coef="1.9988"/><qTerm  idx="-1"  idxOne="16"  idxTwo="26"  coef="-.9838"/><qTerm  idx="-1"  idxOne="16"  idxTwo="27"  coef=".3789"/><qTerm  idx="-1"  idxOne="16"  idxTwo="29"  coef="-1.9534"/><qTerm  idx="-1"  idxOne="16"  idxTwo="31"  coef="1.5115"/><qTerm  idx="-1"  idxOne="16"  idxTwo="32"  coef="-1.444"/><qTerm  idx="-1"  idxOne="16"  idxTwo="33"  coef="-1.1874"/><qTerm  idx="-1"  idxOne="16"  idxTwo="37"  coef=".879"/><qTerm  idx="-1"  idxOne="17"  idxTwo="19"  coef="-1.9009"/><qTerm  idx="-1"  idxOne="17"  idxTwo="24"  coef=".6506"/><qTerm  idx="-1"  idxOne="17"  idxTwo="25"  coef="-1.364"/><qTerm  idx="-1"  idxOne="17"  idxTwo="28"  coef=".4464"/><qTerm  idx="-1"  idxOne="17"  idxTwo="31"  coef="1.0499"/><qTerm  idx="-1"  idxOne="17"  idxTwo="35"  coef="1.745"/><qTerm  idx="-1"  idxOne="17"  idxTwo="37"  coef="-1.3346"/><qTerm  idx="-1"  idxOne="18"  idxTwo="19"  coef=".7826"/><qTerm  idx="-1"  idxOne="18"  idxTwo="20"  coef="-1.3755"/><qTerm  idx="-1"  idxOne="18"  idxTwo="21"  coef=".7406"/><qTerm  idx="-1"  idxOne="18"  idxTwo="25"  coef="-1.1032"/><qTerm  idx="-1"  idxOne="18"  idxTwo="35"  coef="-1.3761"/><qTerm  idx="-1"  idxOne="19"  idxTwo="22"  coef="-7.4e-3"/><qTerm  idx="-1"  idxOne="19"  idxTwo="24"  coef=".732"/><qTerm  idx="-1"  idxOne="19"  idxTwo="26"  coef="-1.5289"/><qTerm  idx="-1"  idxOne="19"  idxTwo="31"  coef="1.9514"/><qTerm  idx="-1"  idxOne="19"  idxTwo="33"  coef="1.6674"/><qTerm  idx="-1"  idxOne="19"  idxTwo="37"  coef="1.8422"/><qTerm  idx="-1"  idxOne="19"  idxTwo="38"  coef="-.1361"/><qTerm  idx="-1"  idxOne="19"  idxTwo="39"  coef=".2445"/><qTerm  idx="-1"  idxOne="20"  idxTwo="23"  coef="-9.81e-2"/><qTerm  idx="-1"  idxOne="20"  idxTwo="28"  coef="8.96e-2"/><qTerm  idx="-1"  idxOne="20"  idxTwo="29"  coef="-.8793"/><qTerm  idx="-1"  idxOne="20"  idxTwo="30"  coef="-.4665"/><qTerm  idx="-1"  idxOne="20"  idxTwo="33"  coef="-1.79e-2"/><qTerm  idx="-1"  idxOne="21"  idxTwo="28"  coef="1.6113"/><qTerm  idx="-1"  idxOne="21"  idxTwo="29"  coef="1.307"/><qTerm  idx="-1"  idxOne="21"  idxTwo="30"  coef=".5837"/><qTerm  idx="-1"  idxOne="21"  idxTwo="37"  coef="-.4612"/><qTerm  idx="-1"  idxOne="22"  idxTwo="24"  coef=".9552"/><qTerm  idx="-1"  idxOne="22"  idxTwo="27"  coef="1.5024"/><qTerm  idx="-1"  idxOne="22"  idxTwo="32"  coef="-5.66e-2"/><qTerm  idx="-1"  idxOne="22"  idxTwo="33"  coef="-1.662"/><qTerm  idx="-1"  idxOne="23"  idxTwo="35"  coef="-.3673"/><qTerm  idx="-1"  idxOne="24"  idxTwo="27"  coef=".4027"/><qTerm  idx="-1"  idxOne="24"  idxTwo="29"  coef=".7074"/><qTerm  idx="-1"  idxOne="24"  idxTwo="36"  coef=".7041"/><qTerm  idx="-1"  idxOne="24"  idxTwo="38"  coef="-.3845"/><qTerm  idx="-1"  idxOne="25"  idxTwo="26"  coef="-.2172"/><qTerm  idx="-1"  idxOne="25"  idxTwo="28"  coef="1.5424"/><qTerm  idx="-1"  idxOne="25"  idxTwo="29"  coef=".6595"/><qTerm  idx="-1"  idxOne="25"  idxTwo="34"  coef="1.5577"/><qTerm  idx="-1"  idxOne="25"  idxTwo="37"  coef=".3273"/><qTerm  idx="-1"  idxOne="26"  idxTwo="28"  coef="-1.6398"/><qTerm  idx="-1"  idxOne="26"  idxTwo="36"  coef="-.3494"/><qTerm  idx="-1"  idxOne="27"  idxTwo="29"  coef="-1.5134"/><qTerm  idx="-1"  idxOne="27"  idxTwo="30"  coef="-.9831"/><qTerm  idx="-1"  idxOne="27"  idxTwo="37"  coef=".8669"/><qTerm  idx="-1"  idxOne="27"  idxTwo="38"  coef="1.3107"/><qTerm  idx="-1"  idxOne="28"  idxTwo="28"  coef="7.34e-2"/><qTerm  idx="-1"  idxOne="28"  idxTwo="32"  coef="1.9721"/><qTerm  idx="-1"  idxOne="28"  idxTwo="33"  coef="-1.3442"/><qTerm  idx="-1"  idxOne="28"  idxTwo="34"  coef=".7851"/><qTerm  idx="-1"  idxOne="28"  idxTwo="37"  coef="-1.5574"/><qTerm  idx="-1"  idxOne="28"  idxTwo="39"  coef="1.0419"/><qTerm  idx="-1"  idxOne="29"  idxTwo="31"  coef="-1.0884"/><qTerm  idx="-1"  idxOne="29"  idxTwo="34"  coef=".6364"/><qTerm  idx="-1"  idxOne="29"  idxTwo="37"  coef="-.8381"/><qTerm  idx="-1"  idxOne="29"  idxTwo="38"  coef="1.5142"/><qTerm  idx="-1"  idxOne="30"  idxTwo="30"  coef="-1.3619"/><qTerm  idx="-1"  idxOne="30"  idxTwo="31"  coef="1.0136"/><qTerm  idx="-1"  idxOne="30"  idxTwo="33"  coef=".1515"/><qTerm  idx="-1"  idxOne="30"  idxTwo="34"  coef=".411"/><qTerm  idx="-1"  idxOne="30"  idxTwo="35"  coef="1.5698"/><qTerm  idx="-1"  idxOne="30"  idxTwo="39"  coef="-1.8691"/><qTerm  idx="-1"  idxOne="31"  idxTwo="32"  coef=".3565"/><qTerm  idx="-1"  idxOne="31"  idxTwo="34"  coef="-1.1411"/><qTerm  idx="-1"  idxOne="32"  idxTwo="37"  coef="-.128"/><qTerm  idx="-1"  idxOne="32"  idxTwo="38"  coef="-.4891"/><qTerm  idx="-1"  idxOne="33"  idxTwo="36"  coef="1.0659"/><qTerm  idx="-1"  idxOne="33"  idxTwo="37"  coef="-1.7812"/><qTerm  idx="-1"  idxOne="34"  idxTwo="38"  coef=".7918"/><qTerm  idx="-1"  idxOne="35"  idxTwo="37"  coef=".2259"/><qTerm  idx="-1"  idxOne="36"  idxTwo="38"  coef="-1.5161"/><qTerm  idx="-1"  idxOne="37"  idxTwo="39"  coef=".764"/></quadraticCoefficients></instanceData></osil>
